NAME : senseval3_subTrees1.gtsp.pid16457.gtsp.21474871.tour
COMMENT : Length = 21474871
COMMENT : Found by LKH [Keld Helsgaun] Mon Mar 12 11:30:25 2018
TYPE : TOUR
DIMENSION : 37
TOUR_SECTION
1
2
3
4
5
6
7
9
10
11
37
36
12
13
14
15
16
17
18
19
20
21
22
23
24
25
26
27
28
29
30
31
32
33
34
35
8
-1
EOF
